(set-option :produce-models true)
(set-logic QF_UF)
(declare-fun p7() Bool)
(declare-fun p12() Bool)
(declare-fun p28() Bool)
(declare-fun p22() Bool)
(declare-fun p26() Bool)
(declare-fun p33() Bool)
(declare-fun p29() Bool)
(declare-fun p34() Bool)
(declare-fun p39() Bool)
(declare-fun p2() Bool)
(declare-fun p1() Bool)
(declare-fun p15() Bool)
(declare-fun p11() Bool)
(declare-fun p23() Bool)
(declare-fun p8() Bool)
(declare-fun p10() Bool)
(declare-fun p14() Bool)
(declare-fun p37() Bool)
(declare-fun p16() Bool)
(declare-fun p18() Bool)
(declare-fun p19() Bool)
(declare-fun p21() Bool)
(declare-fun p4() Bool)
(declare-fun p31() Bool)
(declare-fun p27() Bool)
(declare-fun p30() Bool)
(declare-fun p9() Bool)
(declare-fun p17() Bool)
(declare-fun p5() Bool)
(declare-fun p20() Bool)
(declare-fun p38() Bool)
(declare-fun p36() Bool)
(declare-fun p24() Bool)
(declare-fun p25() Bool)
(declare-fun p13() Bool)
(declare-fun p6() Bool)
(declare-fun p32() Bool)
(declare-fun p35() Bool)
(declare-fun p3() Bool)
(declare-fun p0() Bool)
(assert
(and (or p7 p12 (not p28)) (or (not p12) p22 p26) (or (not p33) p29 (not p34)) (or p34 (not p39) (not p2)) (or p1 p15 p11) (or (not p23) (not p8) p10) (or p14 p29 p37) (or p7 (not p16) (not p7)) (or (not p18) p12 p7) (or p19 (not p23) p39) (or p23 p21 (not p4)) (or (not p19) p7 p15) (or (not p1) p15 (not p31)) (or (not p27) (not p30) p33) (or (not p16) p9 (not p29)) (or (not p8) p26 p17) (or p34 (not p34) p8) (or (not p5) p20 p15) (or (not p31) (not p21) (not p27)) (or (not p23) p38 p11) (or (not p36) (not p38) (not p12)) (or (not p29) (not p24) (not p16)) (or (not p24) p30 (not p11)) (or p25 (not p17) p17) (or p5 p11 (not p27)) (or p19 (not p33) p13) (or (not p20) (not p7) p7) (or (not p26) p23 (not p15)) (or p8 p18 p34) (or (not p7) (not p8) (not p1)) (or p18 (not p10) p15) (or p11 (not p15) p36) (or (not p21) p27 p8) (or (not p23) p12 (not p23)) (or p38 p39 (not p34)) (or p4 p9 p20) (or (not p31) p18 p16) (or (not p19) p8 (not p6)) (or (not p32) (not p33) p36) (or (not p35) p22 p33) (or p36 p12 p8) (or (not p6) (not p3) (not p34)) (or p37 (not p27) p0) (or (not p4) (not p4) p38) (or (not p29) (not p22) p0) (or p18 p36 p2) (or (not p25) p19 (not p6)) (or p6 (not p5) (not p8)) (or (not p5) (not p6) (not p16)) (or p29 p9 (not p25)) (or p5 (not p5) (not p8)) (or (not p7) (not p18) (not p2)) (or p31 (not p18) (not p0)) (or (not p13) p28 (not p19)) (or p13 p16 (not p13)) (or (not p36) p1 p28) (or p24 p6 p35) (or p38 (not p10) p15) (or p9 (not p23) p16) (or p23 (not p32) (not p32)) (or p36 (not p11) p22) (or (not p35) p16 p27) (or (not p29) (not p38) p18) (or p31 (not p13) (not p9)) (or (not p21) p26 p10) (or (not p25) p2 p16) (or p20 (not p20) (not p3)) (or (not p13) (not p19) (not p1)) (or (not p38) (not p31) p34) (or (not p11) (not p2) p35) (or p22 p32 (not p31)) (or p1 (not p18) (not p15)) (or p30 (not p1) p30) (or (not p27) (not p35) p37) (or p18 p12 p36) (or (not p33) (not p36) (not p10)) (or p24 p23 (not p30)) (or p39 p8 p24) (or (not p37) p39 p9) (or (not p9) p32 (not p14)) (or (not p0) (not p38) (not p11)) (or p3 p29 p14) (or p25 p31 (not p35)) (or p29 (not p29) (not p1)) (or (not p0) p23 (not p24)) (or p0 (not p32) (not p7)) (or (not p3) p19 p33) (or p31 p20 (not p0)) (or (not p9) p4 (not p38)) (or p16 p36 p30) (or p36 (not p7) p6) (or (not p14) p18 p20) (or (not p30) (not p11) (not p20)) (or (not p20) (not p10) (not p1)) (or p25 p25 (not p5)) (or (not p36) (not p25) (not p35)) (or (not p34) (not p34) (not p30)) (or (not p29) (not p6) p35) (or (not p21) p9 p31) (or (not p35) p34 (not p37)) (or (not p34) p18 (not p21)) (or (not p19) (not p11) (not p8)) (or (not p3) (not p30) (not p2)) (or (not p12) (not p8) p13) (or (not p13) p0 (not p13)) (or p37 p2 p12) (or p33 p3 (not p12)) (or p28 p12 (not p1)) (or p23 p29 p4) (or (not p22) (not p21) p32) (or (not p15) p32 p20) (or (not p13) p0 p15) (or (not p38) (not p30) p38) (or (not p24) p19 p18) (or p23 p22 (not p0)) (or (not p29) (not p10) (not p20)) (or p13 (not p39) (not p22)) (or (not p16) (not p32) p15) (or p30 (not p19) (not p10)) (or (not p14) (not p24) (not p35)) (or (not p37) (not p34) (not p39)) (or p5 p3 p0) (or (not p24) p12 (not p21)) (or p17 (not p18) (not p39)) (or p25 (not p37) (not p1)) (or (not p6) p20 p6) (or p9 (not p24) (not p22)) (or (not p25) p16 (not p30)) (or p8 p2 (not p15)) (or p23 p9 (not p27)) (or p31 (not p1) p29) (or (not p25) p16 p20) (or (not p30) (not p6) p6) (or (not p31) (not p13) (not p14)) (or (not p4) (not p22) (not p1)) (or p33 p12 (not p7)) (or (not p20) p28 (not p8)) (or (not p33) (not p37) p19) (or p16 p36 (not p35)) (or (not p35) (not p14) p13) (or (not p30) p19 (not p23)) (or p13 p7 p37) (or p36 (not p4) p10) (or (not p5) (not p26) (not p7)) (or (not p36) (not p28) (not p13)) (or p2 (not p7) (not p24)) (or (not p35) (not p14) p37) (or (not p27) p30 (not p8)) (or p24 (not p39) (not p0)) (or p27 (not p16) (not p23)) (or p27 (not p19) p30) (or (not p4) (not p31) p24) (or p6 (not p12) p4) (or (not p34) p4 p31) (or (not p9) p32 (not p11)) (or (not p38) p3 p31) (or (not p35) (not p7) (not p0)) (or (not p21) p1 (not p14)) (or (not p10) p39 p39) (or p24 p14 (not p23)) (or (not p12) (not p4) (not p11)) (or p28 p2 p11) (or (not p28) p0 p31) (or p18 p36 p33) (or (not p31) (not p1) (not p0)) (or (not p11) p22 p27) (or p20 p29 p16) (or p4 p34 (not p10)) (or p31 (not p18) (not p4)) (or (not p2) (not p15) (not p13)) (or p2 p12 (not p5)))
)
(check-sat)
(get-model)
